\ Model TP OSE Octobre 2019
\ LP format - for model browsing. Use MPS format to capture full model detail.
Maximize
  0.0134722222222222 mcarb0 - 0.19 mbiog0 - 0.025 mvert0
   + 0.1675166666666666 mbois0 + 0.1937541666666666 mrecy0
   + 0.1165333333333333 masse_humidvert0
   + 0.2165833333333333 masse_a_sechervert0 + 0.2185 masse_humidbiog0
   + 0.23 masse_a_secherbiog0 - 0.128 mb30A0 - 0.12 mb30C0 - 0.128 mb480
   - 0.116 mb070 - 0.044 mb130 - 0.076 mb840 - 0.06 mb830 - 0.1 mb050
   - 0.088 mb040 - 0.116 mb2000 - 0.156 mb3000 - 0.196 mb4000
   - 1.45125 incorp_biomasse0 + 0.0157416666666667 mcarb1 - 0.19 mbiog1
   - 0.025 mvert1 + 0.170867 mbois1 + 0.19786925 mrecy1
   + 0.118864 masse_humidvert1 + 0.220915 masse_a_sechervert1
   + 0.22287 masse_humidbiog1 + 0.2346 masse_a_secherbiog1 - 0.128 mb30A1
   - 0.12 mb30C1 - 0.128 mb481 - 0.116 mb071 - 0.044 mb131 - 0.076 mb841
   - 0.06 mb831 - 0.1 mb051 - 0.088 mb041 - 0.116 mb2001 - 0.156 mb3001
   - 0.196 mb4001 - 1.45125 incorp_biomasse1 + 0.0180565 mcarb2
   - 0.19 mbiog2 - 0.025 mvert2 + 0.17428434 mbois2
   + 0.2020666349999999 mrecy2 + 0.12124128 masse_humidvert2
   + 0.2253332999999999 masse_a_sechervert2 + 0.2273274 masse_humidbiog2
   + 0.239292 masse_a_secherbiog2 - 0.128 mb30A2 - 0.12 mb30C2
   - 0.128 mb482 - 0.116 mb072 - 0.044 mb132 - 0.076 mb842 - 0.06 mb832
   - 0.1 mb052 - 0.088 mb042 - 0.116 mb2002 - 0.156 mb3002 - 0.196 mb4002
   - 1.45125 incorp_biomasse2 + 0.02041763 mcarb3 - 0.19 mbiog3
   - 0.025 mvert3 + 0.1777700268 mbois3 + 0.2063479677 mrecy3
   + 0.1236661056 masse_humidvert3 + 0.229839966 masse_a_sechervert3
   + 0.231873948 masse_humidbiog3 + 0.24407784 masse_a_secherbiog3
   - 0.128 mb30A3 - 0.12 mb30C3 - 0.128 mb483 - 0.116 mb073 - 0.044 mb133
   - 0.076 mb843 - 0.06 mb833 - 0.1 mb053 - 0.088 mb043 - 0.116 mb2003
   - 0.156 mb3003 - 0.196 mb4003 - 1.45125 incorp_biomasse3
   + 0.0228259826 mcarb4 - 0.19 mbiog4 - 0.025 mvert4
   + 0.181325427336 mbois4 + 0.2107149270539999 mrecy4
   + 0.126139427712 masse_humidvert4
   + 0.2344367653199999 masse_a_sechervert4
   + 0.2365114269599999 masse_humidbiog4
   + 0.2489593967999999 masse_a_secherbiog4 - 0.128 mb30A4 - 0.12 mb30C4
   - 0.128 mb484 - 0.116 mb074 - 0.044 mb134 - 0.076 mb844 - 0.06 mb834
   - 0.1 mb054 - 0.088 mb044 - 0.116 mb2004 - 0.156 mb3004 - 0.196 mb4004
   - 1.45125 incorp_biomasse4 + 0.025282502252 mcarb5 - 0.19 mbiog5
   - 0.025 mvert5 + 0.18495193588272 mbois5 + 0.2151692255950799 mrecy5
   + 0.12866221626624 masse_humidvert5
   + 0.2391255006263999 masse_a_sechervert5
   + 0.2412416554991999 masse_humidbiog5
   + 0.2539385847359999 masse_a_secherbiog5 - 0.128 mb30A5 - 0.12 mb30C5
   - 0.128 mb485 - 0.116 mb075 - 0.044 mb135 - 0.076 mb845 - 0.06 mb835
   - 0.1 mb055 - 0.088 mb045 - 0.116 mb2005 - 0.156 mb3005 - 0.196 mb4005
   - 1.45125 incorp_biomasse5 + 0.02778815229704 mcarb6 - 0.19 mbiog6
   - 0.025 mvert6 + 0.1886509746003744 mbois6 + 0.2197126101069816 mrecy6
   + 0.1312354605915648 masse_humidvert6
   + 0.243908010638928 masse_a_sechervert6
   + 0.246066488609184 masse_humidbiog6
   + 0.25901735643072 masse_a_secherbiog6 - 0.128 mb30A6 - 0.12 mb30C6
   - 0.128 mb486 - 0.116 mb076 - 0.044 mb136 - 0.076 mb846 - 0.06 mb836
   - 0.1 mb056 - 0.088 mb046 - 0.116 mb2006 - 0.156 mb3006 - 0.196 mb4006
   - 1.45125 incorp_biomasse6 + 0.0303439153429808 mcarb7 - 0.19 mbiog7
   - 0.025 mvert7 + 0.1924239940923819 mbois7 + 0.2243468623091212 mrecy7
   + 0.1338601698033961 masse_humidvert7
   + 0.2487861708517065 masse_a_sechervert7
   + 0.2509878183813676 masse_humidbiog7
   + 0.2641977035593344 masse_a_secherbiog7 - 0.128 mb30A7 - 0.12 mb30C7
   - 0.128 mb487 - 0.116 mb077 - 0.044 mb137 - 0.076 mb847 - 0.06 mb837
   - 0.1 mb057 - 0.088 mb047 - 0.116 mb2007 - 0.156 mb3007 - 0.196 mb4007
   - 1.45125 incorp_biomasse7 + 0.0329507936498404 mcarb8 - 0.19 mbiog8
   - 0.025 mvert8 + 0.1962724739742295 mbois8 + 0.2290737995553036 mrecy8
   + 0.136537373199464 masse_humidvert8
   + 0.2537618942687406 masse_a_sechervert8
   + 0.256007574748995 masse_humidbiog8
   + 0.269481657630521 masse_a_secherbiog8 - 0.128 mb30A8 - 0.12 mb30C8
   - 0.128 mb488 - 0.116 mb078 - 0.044 mb138 - 0.076 mb848 - 0.06 mb838
   - 0.1 mb058 - 0.088 mb048 - 0.116 mb2008 - 0.156 mb3008 - 0.196 mb4008
   - 1.45125 incorp_biomasse8 + 0.0356098095228372 mcarb9 - 0.19 mbiog9
   - 0.025 mvert9 + 0.2001979234537141 mbois9 + 0.2338952755464097 mrecy9
   + 0.1392681206634533 masse_humidvert9
   + 0.2588371321541155 masse_a_sechervert9
   + 0.2611277262439749 masse_humidbiog9
   + 0.2748712907831314 masse_a_secherbiog9 - 0.128 mb30A9 - 0.12 mb30C9
   - 0.128 mb489 - 0.116 mb079 - 0.044 mb139 - 0.076 mb849 - 0.06 mb839
   - 0.1 mb059 - 0.088 mb049 - 0.116 mb2009 - 0.156 mb3009 - 0.196 mb4009
   - 1.45125 incorp_biomasse9 + 0.038322005713294 mcarb10 - 0.19 mbiog10
   - 0.025 mvert10 + 0.2042018819227884 mbois10
   + 0.2388131810573379 mrecy10 + 0.1420534830767224 masse_humidvert10
   + 0.2640138747971978 masse_a_sechervert10
   + 0.2663502807688544 masse_humidbiog10
   + 0.2803687165987941 masse_a_secherbiog10 - 0.128 mb30A10 - 0.12 mb30C10
   - 0.128 mb4810 - 0.116 mb0710 - 0.044 mb1310 - 0.076 mb8410
   - 0.06 mb8310 - 0.1 mb0510 - 0.088 mb0410 - 0.116 mb20010
   - 0.156 mb30010 - 0.196 mb40010 - 1.45125 incorp_biomasse10
   + 0.0410884458275598 mcarb11 - 0.19 mbiog11 - 0.025 mvert11
   + 0.2082859195612441 mbois11 + 0.2438294446784847 mrecy11
   + 0.1448945527382568 masse_humidvert11
   + 0.2692941522931417 masse_a_sechervert11
   + 0.2716772863842315 masse_humidbiog11
   + 0.28597609093077 masse_a_secherbiog11 - 0.128 mb30A11 - 0.12 mb30C11
   - 0.128 mb4811 - 0.116 mb0711 - 0.044 mb1311 - 0.076 mb8411
   - 0.06 mb8311 - 0.1 mb0511 - 0.088 mb0411 - 0.116 mb20011
   - 0.156 mb30011 - 0.196 mb40011 - 1.45125 incorp_biomasse11
   + 0.043910214744111 mcarb12 - 0.19 mbiog12 - 0.025 mvert12
   + 0.212451637952469 mbois12 + 0.2489460335720544 mrecy12
   + 0.1477924437930219 masse_humidvert12
   + 0.2746800353390046 masse_a_sechervert12
   + 0.2771108321119161 masse_humidbiog12
   + 0.2916956127493854 masse_a_secherbiog12 - 0.128 mb30A12 - 0.12 mb30C12
   - 0.128 mb4812 - 0.116 mb0712 - 0.044 mb1312 - 0.076 mb8412
   - 0.06 mb8312 - 0.1 mb0512 - 0.088 mb0412 - 0.116 mb20012
   - 0.156 mb30012 - 0.196 mb40012 - 1.45125 incorp_biomasse12
   + 0.0467884190389933 mcarb13 - 0.19 mbiog13 - 0.025 mvert13
   + 0.2167006707115185 mbois13 + 0.2541649542434955 mrecy13
   + 0.1507482926688824 masse_humidvert13
   + 0.2801736360457847 masse_a_sechervert13
   + 0.2826530487541545 masse_humidbiog13
   + 0.2975295250043731 masse_a_secherbiog13 - 0.128 mb30A13 - 0.12 mb30C13
   - 0.128 mb4813 - 0.116 mb0713 - 0.044 mb1313 - 0.076 mb8413
   - 0.06 mb8313 - 0.1 mb0513 - 0.088 mb0413 - 0.116 mb20013
   - 0.156 mb30013 - 0.196 mb40013 - 1.45125 incorp_biomasse13
   + 0.0497241874197731 mcarb14 - 0.19 mbiog14 - 0.025 mvert14
   + 0.2210346841257488 mbois14 + 0.2594882533283654 mrecy14
   + 0.15376325852226 masse_humidvert14
   + 0.2857771087667004 masse_a_sechervert14
   + 0.2883061097292375 masse_humidbiog14
   + 0.3034801155044605 masse_a_secherbiog14 - 0.128 mb30A14 - 0.12 mb30C14
   - 0.128 mb4814 - 0.116 mb0714 - 0.044 mb1314 - 0.076 mb8414
   - 0.06 mb8314 - 0.1 mb0514 - 0.088 mb0414 - 0.116 mb20014
   - 0.156 mb30014 - 0.196 mb40014 - 1.45125 incorp_biomasse14
   + 0.0527186711681686 mcarb15 - 0.19 mbiog15 - 0.025 mvert15
   + 0.2254553778082638 mbois15 + 0.2649180183949327 mrecy15
   + 0.1568385236927052 masse_humidvert15
   + 0.2914926509420344 masse_a_sechervert15
   + 0.2940722319238223 masse_humidbiog15
   + 0.3095497178145498 masse_a_secherbiog15 - 0.128 mb30A15 - 0.12 mb30C15
   - 0.128 mb4815 - 0.116 mb0715 - 0.044 mb1315 - 0.076 mb8415
   - 0.06 mb8315 - 0.1 mb0515 - 0.088 mb0415 - 0.116 mb20015
   - 0.156 mb30015 - 0.196 mb40015 - 1.45125 incorp_biomasse15
   + 0.055773044591532 mcarb16 - 0.19 mbiog16 - 0.025 mvert16
   + 0.2299644853644291 mbois16 + 0.2704563787628314 mrecy16
   + 0.1599752941665594 masse_humidvert16
   + 0.2973225039608751 masse_a_sechervert16
   + 0.2999536765622988 masse_humidbiog16
   + 0.3157407121708408 masse_a_secherbiog16 - 0.128 mb30A16 - 0.12 mb30C16
   - 0.128 mb4816 - 0.116 mb0716 - 0.044 mb1316 - 0.076 mb8416
   - 0.06 mb8316 - 0.1 mb0516 - 0.088 mb0416 - 0.116 mb20016
   - 0.156 mb30016 - 0.196 mb40016 - 1.45125 incorp_biomasse16
   + 0.0588885054833626 mcarb17 - 0.19 mbiog17 - 0.025 mvert17
   + 0.2345637750717177 mbois17 + 0.276105506338088 mrecy17
   + 0.1631748000498905 masse_humidvert17
   + 0.3032689540400926 masse_a_sechervert17
   + 0.3059527500935448 masse_humidbiog17
   + 0.3220555264142577 masse_a_secherbiog17 - 0.128 mb30A17 - 0.12 mb30C17
   - 0.128 mb4817 - 0.116 mb0717 - 0.044 mb1317 - 0.076 mb8417
   - 0.06 mb8317 - 0.1 mb0517 - 0.088 mb0417 - 0.116 mb20017
   - 0.156 mb30017 - 0.196 mb40017 - 1.45125 incorp_biomasse17
   + 0.0620662755930299 mcarb18 - 0.19 mbiog18 - 0.025 mvert18
   + 0.239255050573152 mbois18 + 0.2818676164648498 mrecy18
   + 0.1664382960508884 masse_humidvert18
   + 0.3093343331208945 masse_a_sechervert18
   + 0.3120718050954157 masse_humidbiog18
   + 0.3284966369425428 masse_a_secherbiog18 - 0.128 mb30A18 - 0.12 mb30C18
   - 0.128 mb4818 - 0.116 mb0718 - 0.044 mb1318 - 0.076 mb8418
   - 0.06 mb8318 - 0.1 mb0518 - 0.088 mb0418 - 0.116 mb20018
   - 0.156 mb30018 - 0.196 mb40018 - 1.45125 incorp_biomasse18
   + 0.0653076011048905 mcarb19 - 0.19 mbiog19 - 0.025 mvert19
   + 0.2440401515846151 mbois19 + 0.2877449687941468 mrecy19
   + 0.1697670619719061 masse_humidvert19
   + 0.3155210197833124 masse_a_sechervert19
   + 0.318313241197324 masse_humidbiog19
   + 0.3350665696813937 masse_a_secherbiog19 - 0.128 mb30A19 - 0.12 mb30C19
   - 0.128 mb4819 - 0.116 mb0719 - 0.044 mb1319 - 0.076 mb8419
   - 0.06 mb8319 - 0.1 mb0519 - 0.088 mb0419 - 0.116 mb20019
   - 0.156 mb30019 - 0.196 mb40019 - 1.45125 incorp_biomasse19
   - 29.625 Constant
Subject To
 R0: 0.9 mcarb0 - 0.1 mbiog0 - 0.1 mvert0 - 0.1 mbois0 - 0.1 mrecy0 >= 0
 R1: 6944.444444444443 mcarb0 + 3833.333333333333 mbois0
   + 4708.333333333333 mrecy0 + 2666.666666666667 masse_humidvert0
   + 4956.140350877193 masse_a_sechervert0 + 5000 masse_humidbiog0
   + 5263.157894736841 masse_a_secherbiog0 = 4.9342105263157897e+06
 R2: masse_a_sechervert0 + masse_a_secherbiog0 <= 150
 R3: mvert0 - masse_humidvert0 - masse_a_sechervert0 = 0
 R4: mbiog0 - masse_humidbiog0 - masse_a_secherbiog0 = 0
 R5: mvert0 + mbois0 + mrecy0 <= 547.5
 R6: mbois0 - mb30A0 - mb30C0 - mb480 - mb070 - mb130 - mb840 - mb830
   - mb050 - mb040 - mb2000 - mb3000 - mb4000 = 0
 R7: - mcarb0 + mbiog0 + mvert0 + mbois0 + mrecy0
   - 710.5263157894739 incorp_biomasse0 >= -710.5263157894739
 R8: 0.9 mcarb1 - 0.1 mbiog1 - 0.1 mvert1 - 0.1 mbois1 - 0.1 mrecy1 >= 0
 R9: 6944.444444444443 mcarb1 + 3833.333333333333 mbois1
   + 4708.333333333333 mrecy1 + 2666.666666666667 masse_humidvert1
   + 4956.140350877193 masse_a_sechervert1 + 5000 masse_humidbiog1
   + 5263.157894736841 masse_a_secherbiog1 = 4.9342105263157897e+06
 R10: masse_a_sechervert1 + masse_a_secherbiog1 <= 150
 R11: mvert1 - masse_humidvert1 - masse_a_sechervert1 = 0
 R12: mbiog1 - masse_humidbiog1 - masse_a_secherbiog1 = 0
 R13: mvert1 + mbois1 + mrecy1 <= 547.5
 R14: mbois1 - mb30A1 - mb30C1 - mb481 - mb071 - mb131 - mb841 - mb831
   - mb051 - mb041 - mb2001 - mb3001 - mb4001 = 0
 R15: - mcarb1 + mbiog1 + mvert1 + mbois1 + mrecy1
   - 710.5263157894739 incorp_biomasse1 >= -710.5263157894739
 R16: 0.9 mcarb2 - 0.1 mbiog2 - 0.1 mvert2 - 0.1 mbois2 - 0.1 mrecy2 >= 0
 R17: 6944.444444444443 mcarb2 + 3833.333333333333 mbois2
   + 4708.333333333333 mrecy2 + 2666.666666666667 masse_humidvert2
   + 4956.140350877193 masse_a_sechervert2 + 5000 masse_humidbiog2
   + 5263.157894736841 masse_a_secherbiog2 = 4.9342105263157897e+06
 R18: masse_a_sechervert2 + masse_a_secherbiog2 <= 150
 R19: mvert2 - masse_humidvert2 - masse_a_sechervert2 = 0
 R20: mbiog2 - masse_humidbiog2 - masse_a_secherbiog2 = 0
 R21: mvert2 + mbois2 + mrecy2 <= 547.5
 R22: mbois2 - mb30A2 - mb30C2 - mb482 - mb072 - mb132 - mb842 - mb832
   - mb052 - mb042 - mb2002 - mb3002 - mb4002 = 0
 R23: - mcarb2 + mbiog2 + mvert2 + mbois2 + mrecy2
   - 710.5263157894739 incorp_biomasse2 >= -710.5263157894739
 R24: 0.9 mcarb3 - 0.1 mbiog3 - 0.1 mvert3 - 0.1 mbois3 - 0.1 mrecy3 >= 0
 R25: 6944.444444444443 mcarb3 + 3833.333333333333 mbois3
   + 4708.333333333333 mrecy3 + 2666.666666666667 masse_humidvert3
   + 4956.140350877193 masse_a_sechervert3 + 5000 masse_humidbiog3
   + 5263.157894736841 masse_a_secherbiog3 = 4.9342105263157897e+06
 R26: masse_a_sechervert3 + masse_a_secherbiog3 <= 150
 R27: mvert3 - masse_humidvert3 - masse_a_sechervert3 = 0
 R28: mbiog3 - masse_humidbiog3 - masse_a_secherbiog3 = 0
 R29: mvert3 + mbois3 + mrecy3 <= 547.5
 R30: mbois3 - mb30A3 - mb30C3 - mb483 - mb073 - mb133 - mb843 - mb833
   - mb053 - mb043 - mb2003 - mb3003 - mb4003 = 0
 R31: - mcarb3 + mbiog3 + mvert3 + mbois3 + mrecy3
   - 710.5263157894739 incorp_biomasse3 >= -710.5263157894739
 R32: 0.9 mcarb4 - 0.1 mbiog4 - 0.1 mvert4 - 0.1 mbois4 - 0.1 mrecy4 >= 0
 R33: 6944.444444444443 mcarb4 + 3833.333333333333 mbois4
   + 4708.333333333333 mrecy4 + 2666.666666666667 masse_humidvert4
   + 4956.140350877193 masse_a_sechervert4 + 5000 masse_humidbiog4
   + 5263.157894736841 masse_a_secherbiog4 = 4.9342105263157897e+06
 R34: masse_a_sechervert4 + masse_a_secherbiog4 <= 150
 R35: mvert4 - masse_humidvert4 - masse_a_sechervert4 = 0
 R36: mbiog4 - masse_humidbiog4 - masse_a_secherbiog4 = 0
 R37: mvert4 + mbois4 + mrecy4 <= 547.5
 R38: mbois4 - mb30A4 - mb30C4 - mb484 - mb074 - mb134 - mb844 - mb834
   - mb054 - mb044 - mb2004 - mb3004 - mb4004 = 0
 R39: - mcarb4 + mbiog4 + mvert4 + mbois4 + mrecy4
   - 710.5263157894739 incorp_biomasse4 >= -710.5263157894739
 R40: 0.9 mcarb5 - 0.1 mbiog5 - 0.1 mvert5 - 0.1 mbois5 - 0.1 mrecy5 >= 0
 R41: 6944.444444444443 mcarb5 + 3833.333333333333 mbois5
   + 4708.333333333333 mrecy5 + 2666.666666666667 masse_humidvert5
   + 4956.140350877193 masse_a_sechervert5 + 5000 masse_humidbiog5
   + 5263.157894736841 masse_a_secherbiog5 = 4.9342105263157897e+06
 R42: masse_a_sechervert5 + masse_a_secherbiog5 <= 150
 R43: mvert5 - masse_humidvert5 - masse_a_sechervert5 = 0
 R44: mbiog5 - masse_humidbiog5 - masse_a_secherbiog5 = 0
 R45: mvert5 + mbois5 + mrecy5 <= 547.5
 R46: mbois5 - mb30A5 - mb30C5 - mb485 - mb075 - mb135 - mb845 - mb835
   - mb055 - mb045 - mb2005 - mb3005 - mb4005 = 0
 R47: - mcarb5 + mbiog5 + mvert5 + mbois5 + mrecy5
   - 710.5263157894739 incorp_biomasse5 >= -710.5263157894739
 R48: 0.9 mcarb6 - 0.1 mbiog6 - 0.1 mvert6 - 0.1 mbois6 - 0.1 mrecy6 >= 0
 R49: 6944.444444444443 mcarb6 + 3833.333333333333 mbois6
   + 4708.333333333333 mrecy6 + 2666.666666666667 masse_humidvert6
   + 4956.140350877193 masse_a_sechervert6 + 5000 masse_humidbiog6
   + 5263.157894736841 masse_a_secherbiog6 = 4.9342105263157897e+06
 R50: masse_a_sechervert6 + masse_a_secherbiog6 <= 150
 R51: mvert6 - masse_humidvert6 - masse_a_sechervert6 = 0
 R52: mbiog6 - masse_humidbiog6 - masse_a_secherbiog6 = 0
 R53: mvert6 + mbois6 + mrecy6 <= 547.5
 R54: mbois6 - mb30A6 - mb30C6 - mb486 - mb076 - mb136 - mb846 - mb836
   - mb056 - mb046 - mb2006 - mb3006 - mb4006 = 0
 R55: - mcarb6 + mbiog6 + mvert6 + mbois6 + mrecy6
   - 710.5263157894739 incorp_biomasse6 >= -710.5263157894739
 R56: 0.9 mcarb7 - 0.1 mbiog7 - 0.1 mvert7 - 0.1 mbois7 - 0.1 mrecy7 >= 0
 R57: 6944.444444444443 mcarb7 + 3833.333333333333 mbois7
   + 4708.333333333333 mrecy7 + 2666.666666666667 masse_humidvert7
   + 4956.140350877193 masse_a_sechervert7 + 5000 masse_humidbiog7
   + 5263.157894736841 masse_a_secherbiog7 = 4.9342105263157897e+06
 R58: masse_a_sechervert7 + masse_a_secherbiog7 <= 150
 R59: mvert7 - masse_humidvert7 - masse_a_sechervert7 = 0
 R60: mbiog7 - masse_humidbiog7 - masse_a_secherbiog7 = 0
 R61: mvert7 + mbois7 + mrecy7 <= 547.5
 R62: mbois7 - mb30A7 - mb30C7 - mb487 - mb077 - mb137 - mb847 - mb837
   - mb057 - mb047 - mb2007 - mb3007 - mb4007 = 0
 R63: - mcarb7 + mbiog7 + mvert7 + mbois7 + mrecy7
   - 710.5263157894739 incorp_biomasse7 >= -710.5263157894739
 R64: 0.9 mcarb8 - 0.1 mbiog8 - 0.1 mvert8 - 0.1 mbois8 - 0.1 mrecy8 >= 0
 R65: 6944.444444444443 mcarb8 + 3833.333333333333 mbois8
   + 4708.333333333333 mrecy8 + 2666.666666666667 masse_humidvert8
   + 4956.140350877193 masse_a_sechervert8 + 5000 masse_humidbiog8
   + 5263.157894736841 masse_a_secherbiog8 = 4.9342105263157897e+06
 R66: masse_a_sechervert8 + masse_a_secherbiog8 <= 150
 R67: mvert8 - masse_humidvert8 - masse_a_sechervert8 = 0
 R68: mbiog8 - masse_humidbiog8 - masse_a_secherbiog8 = 0
 R69: mvert8 + mbois8 + mrecy8 <= 547.5
 R70: mbois8 - mb30A8 - mb30C8 - mb488 - mb078 - mb138 - mb848 - mb838
   - mb058 - mb048 - mb2008 - mb3008 - mb4008 = 0
 R71: - mcarb8 + mbiog8 + mvert8 + mbois8 + mrecy8
   - 710.5263157894739 incorp_biomasse8 >= -710.5263157894739
 R72: 0.9 mcarb9 - 0.1 mbiog9 - 0.1 mvert9 - 0.1 mbois9 - 0.1 mrecy9 >= 0
 R73: 6944.444444444443 mcarb9 + 3833.333333333333 mbois9
   + 4708.333333333333 mrecy9 + 2666.666666666667 masse_humidvert9
   + 4956.140350877193 masse_a_sechervert9 + 5000 masse_humidbiog9
   + 5263.157894736841 masse_a_secherbiog9 = 4.9342105263157897e+06
 R74: masse_a_sechervert9 + masse_a_secherbiog9 <= 150
 R75: mvert9 - masse_humidvert9 - masse_a_sechervert9 = 0
 R76: mbiog9 - masse_humidbiog9 - masse_a_secherbiog9 = 0
 R77: mvert9 + mbois9 + mrecy9 <= 547.5
 R78: mbois9 - mb30A9 - mb30C9 - mb489 - mb079 - mb139 - mb849 - mb839
   - mb059 - mb049 - mb2009 - mb3009 - mb4009 = 0
 R79: - mcarb9 + mbiog9 + mvert9 + mbois9 + mrecy9
   - 710.5263157894739 incorp_biomasse9 >= -710.5263157894739
 R80: 0.9 mcarb10 - 0.1 mbiog10 - 0.1 mvert10 - 0.1 mbois10 - 0.1 mrecy10
   >= 0
 R81: 6944.444444444443 mcarb10 + 3833.333333333333 mbois10
   + 4708.333333333333 mrecy10 + 2666.666666666667 masse_humidvert10
   + 4956.140350877193 masse_a_sechervert10 + 5000 masse_humidbiog10
   + 5263.157894736841 masse_a_secherbiog10 = 4.9342105263157897e+06
 R82: masse_a_sechervert10 + masse_a_secherbiog10 <= 150
 R83: mvert10 - masse_humidvert10 - masse_a_sechervert10 = 0
 R84: mbiog10 - masse_humidbiog10 - masse_a_secherbiog10 = 0
 R85: mvert10 + mbois10 + mrecy10 <= 547.5
 R86: mbois10 - mb30A10 - mb30C10 - mb4810 - mb0710 - mb1310 - mb8410
   - mb8310 - mb0510 - mb0410 - mb20010 - mb30010 - mb40010 = 0
 R87: - mcarb10 + mbiog10 + mvert10 + mbois10 + mrecy10
   - 710.5263157894739 incorp_biomasse10 >= -710.5263157894739
 R88: 0.9 mcarb11 - 0.1 mbiog11 - 0.1 mvert11 - 0.1 mbois11 - 0.1 mrecy11
   >= 0
 R89: 6944.444444444443 mcarb11 + 3833.333333333333 mbois11
   + 4708.333333333333 mrecy11 + 2666.666666666667 masse_humidvert11
   + 4956.140350877193 masse_a_sechervert11 + 5000 masse_humidbiog11
   + 5263.157894736841 masse_a_secherbiog11 = 4.9342105263157897e+06
 R90: masse_a_sechervert11 + masse_a_secherbiog11 <= 150
 R91: mvert11 - masse_humidvert11 - masse_a_sechervert11 = 0
 R92: mbiog11 - masse_humidbiog11 - masse_a_secherbiog11 = 0
 R93: mvert11 + mbois11 + mrecy11 <= 547.5
 R94: mbois11 - mb30A11 - mb30C11 - mb4811 - mb0711 - mb1311 - mb8411
   - mb8311 - mb0511 - mb0411 - mb20011 - mb30011 - mb40011 = 0
 R95: - mcarb11 + mbiog11 + mvert11 + mbois11 + mrecy11
   - 710.5263157894739 incorp_biomasse11 >= -710.5263157894739
 R96: 0.9 mcarb12 - 0.1 mbiog12 - 0.1 mvert12 - 0.1 mbois12 - 0.1 mrecy12
   >= 0
 R97: 6944.444444444443 mcarb12 + 3833.333333333333 mbois12
   + 4708.333333333333 mrecy12 + 2666.666666666667 masse_humidvert12
   + 4956.140350877193 masse_a_sechervert12 + 5000 masse_humidbiog12
   + 5263.157894736841 masse_a_secherbiog12 = 4.9342105263157897e+06
 R98: masse_a_sechervert12 + masse_a_secherbiog12 <= 150
 R99: mvert12 - masse_humidvert12 - masse_a_sechervert12 = 0
 R100: mbiog12 - masse_humidbiog12 - masse_a_secherbiog12 = 0
 R101: mvert12 + mbois12 + mrecy12 <= 547.5
 R102: mbois12 - mb30A12 - mb30C12 - mb4812 - mb0712 - mb1312 - mb8412
   - mb8312 - mb0512 - mb0412 - mb20012 - mb30012 - mb40012 = 0
 R103: - mcarb12 + mbiog12 + mvert12 + mbois12 + mrecy12
   - 710.5263157894739 incorp_biomasse12 >= -710.5263157894739
 R104: 0.9 mcarb13 - 0.1 mbiog13 - 0.1 mvert13 - 0.1 mbois13 - 0.1 mrecy13
   >= 0
 R105: 6944.444444444443 mcarb13 + 3833.333333333333 mbois13
   + 4708.333333333333 mrecy13 + 2666.666666666667 masse_humidvert13
   + 4956.140350877193 masse_a_sechervert13 + 5000 masse_humidbiog13
   + 5263.157894736841 masse_a_secherbiog13 = 4.9342105263157897e+06
 R106: masse_a_sechervert13 + masse_a_secherbiog13 <= 150
 R107: mvert13 - masse_humidvert13 - masse_a_sechervert13 = 0
 R108: mbiog13 - masse_humidbiog13 - masse_a_secherbiog13 = 0
 R109: mvert13 + mbois13 + mrecy13 <= 547.5
 R110: mbois13 - mb30A13 - mb30C13 - mb4813 - mb0713 - mb1313 - mb8413
   - mb8313 - mb0513 - mb0413 - mb20013 - mb30013 - mb40013 = 0
 R111: - mcarb13 + mbiog13 + mvert13 + mbois13 + mrecy13
   - 710.5263157894739 incorp_biomasse13 >= -710.5263157894739
 R112: 0.9 mcarb14 - 0.1 mbiog14 - 0.1 mvert14 - 0.1 mbois14 - 0.1 mrecy14
   >= 0
 R113: 6944.444444444443 mcarb14 + 3833.333333333333 mbois14
   + 4708.333333333333 mrecy14 + 2666.666666666667 masse_humidvert14
   + 4956.140350877193 masse_a_sechervert14 + 5000 masse_humidbiog14
   + 5263.157894736841 masse_a_secherbiog14 = 4.9342105263157897e+06
 R114: masse_a_sechervert14 + masse_a_secherbiog14 <= 150
 R115: mvert14 - masse_humidvert14 - masse_a_sechervert14 = 0
 R116: mbiog14 - masse_humidbiog14 - masse_a_secherbiog14 = 0
 R117: mvert14 + mbois14 + mrecy14 <= 547.5
 R118: mbois14 - mb30A14 - mb30C14 - mb4814 - mb0714 - mb1314 - mb8414
   - mb8314 - mb0514 - mb0414 - mb20014 - mb30014 - mb40014 = 0
 R119: - mcarb14 + mbiog14 + mvert14 + mbois14 + mrecy14
   - 710.5263157894739 incorp_biomasse14 >= -710.5263157894739
 R120: 0.9 mcarb15 - 0.1 mbiog15 - 0.1 mvert15 - 0.1 mbois15 - 0.1 mrecy15
   >= 0
 R121: 6944.444444444443 mcarb15 + 3833.333333333333 mbois15
   + 4708.333333333333 mrecy15 + 2666.666666666667 masse_humidvert15
   + 4956.140350877193 masse_a_sechervert15 + 5000 masse_humidbiog15
   + 5263.157894736841 masse_a_secherbiog15 = 4.9342105263157897e+06
 R122: masse_a_sechervert15 + masse_a_secherbiog15 <= 150
 R123: mvert15 - masse_humidvert15 - masse_a_sechervert15 = 0
 R124: mbiog15 - masse_humidbiog15 - masse_a_secherbiog15 = 0
 R125: mvert15 + mbois15 + mrecy15 <= 547.5
 R126: mbois15 - mb30A15 - mb30C15 - mb4815 - mb0715 - mb1315 - mb8415
   - mb8315 - mb0515 - mb0415 - mb20015 - mb30015 - mb40015 = 0
 R127: - mcarb15 + mbiog15 + mvert15 + mbois15 + mrecy15
   - 710.5263157894739 incorp_biomasse15 >= -710.5263157894739
 R128: 0.9 mcarb16 - 0.1 mbiog16 - 0.1 mvert16 - 0.1 mbois16 - 0.1 mrecy16
   >= 0
 R129: 6944.444444444443 mcarb16 + 3833.333333333333 mbois16
   + 4708.333333333333 mrecy16 + 2666.666666666667 masse_humidvert16
   + 4956.140350877193 masse_a_sechervert16 + 5000 masse_humidbiog16
   + 5263.157894736841 masse_a_secherbiog16 = 4.9342105263157897e+06
 R130: masse_a_sechervert16 + masse_a_secherbiog16 <= 150
 R131: mvert16 - masse_humidvert16 - masse_a_sechervert16 = 0
 R132: mbiog16 - masse_humidbiog16 - masse_a_secherbiog16 = 0
 R133: mvert16 + mbois16 + mrecy16 <= 547.5
 R134: mbois16 - mb30A16 - mb30C16 - mb4816 - mb0716 - mb1316 - mb8416
   - mb8316 - mb0516 - mb0416 - mb20016 - mb30016 - mb40016 = 0
 R135: - mcarb16 + mbiog16 + mvert16 + mbois16 + mrecy16
   - 710.5263157894739 incorp_biomasse16 >= -710.5263157894739
 R136: 0.9 mcarb17 - 0.1 mbiog17 - 0.1 mvert17 - 0.1 mbois17 - 0.1 mrecy17
   >= 0
 R137: 6944.444444444443 mcarb17 + 3833.333333333333 mbois17
   + 4708.333333333333 mrecy17 + 2666.666666666667 masse_humidvert17
   + 4956.140350877193 masse_a_sechervert17 + 5000 masse_humidbiog17
   + 5263.157894736841 masse_a_secherbiog17 = 4.9342105263157897e+06
 R138: masse_a_sechervert17 + masse_a_secherbiog17 <= 150
 R139: mvert17 - masse_humidvert17 - masse_a_sechervert17 = 0
 R140: mbiog17 - masse_humidbiog17 - masse_a_secherbiog17 = 0
 R141: mvert17 + mbois17 + mrecy17 <= 547.5
 R142: mbois17 - mb30A17 - mb30C17 - mb4817 - mb0717 - mb1317 - mb8417
   - mb8317 - mb0517 - mb0417 - mb20017 - mb30017 - mb40017 = 0
 R143: - mcarb17 + mbiog17 + mvert17 + mbois17 + mrecy17
   - 710.5263157894739 incorp_biomasse17 >= -710.5263157894739
 R144: 0.9 mcarb18 - 0.1 mbiog18 - 0.1 mvert18 - 0.1 mbois18 - 0.1 mrecy18
   >= 0
 R145: 6944.444444444443 mcarb18 + 3833.333333333333 mbois18
   + 4708.333333333333 mrecy18 + 2666.666666666667 masse_humidvert18
   + 4956.140350877193 masse_a_sechervert18 + 5000 masse_humidbiog18
   + 5263.157894736841 masse_a_secherbiog18 = 4.9342105263157897e+06
 R146: masse_a_sechervert18 + masse_a_secherbiog18 <= 150
 R147: mvert18 - masse_humidvert18 - masse_a_sechervert18 = 0
 R148: mbiog18 - masse_humidbiog18 - masse_a_secherbiog18 = 0
 R149: mvert18 + mbois18 + mrecy18 <= 547.5
 R150: mbois18 - mb30A18 - mb30C18 - mb4818 - mb0718 - mb1318 - mb8418
   - mb8318 - mb0518 - mb0418 - mb20018 - mb30018 - mb40018 = 0
 R151: - mcarb18 + mbiog18 + mvert18 + mbois18 + mrecy18
   - 710.5263157894739 incorp_biomasse18 >= -710.5263157894739
 R152: 0.9 mcarb19 - 0.1 mbiog19 - 0.1 mvert19 - 0.1 mbois19 - 0.1 mrecy19
   >= 0
 R153: 6944.444444444443 mcarb19 + 3833.333333333333 mbois19
   + 4708.333333333333 mrecy19 + 2666.666666666667 masse_humidvert19
   + 4956.140350877193 masse_a_sechervert19 + 5000 masse_humidbiog19
   + 5263.157894736841 masse_a_secherbiog19 = 4.9342105263157897e+06
 R154: masse_a_sechervert19 + masse_a_secherbiog19 <= 150
 R155: mvert19 - masse_humidvert19 - masse_a_sechervert19 = 0
 R156: mbiog19 - masse_humidbiog19 - masse_a_secherbiog19 = 0
 R157: mvert19 + mbois19 + mrecy19 <= 547.5
 R158: mbois19 - mb30A19 - mb30C19 - mb4819 - mb0719 - mb1319 - mb8419
   - mb8319 - mb0519 - mb0419 - mb20019 - mb30019 - mb40019 = 0
 R159: - mcarb19 + mbiog19 + mvert19 + mbois19 + mrecy19
   - 710.5263157894739 incorp_biomasse19 >= -710.5263157894739
Bounds
 mbiog0 <= 700
 mvert0 <= 52
 mrecy0 <= 85
 mb30A0 <= 18
 mb30C0 <= 21
 mb480 <= 12
 mb070 <= 8
 mb130 <= 47
 mb840 <= 24
 mb830 <= 27
 mb050 <= 15
 mb040 <= 26
 mb2000 <= 27
 mb3000 <= 56
 mb4000 <= 93
 mbiog1 <= 700
 mvert1 <= 52
 mrecy1 <= 85
 mb30A1 <= 18
 mb30C1 <= 21
 mb481 <= 12
 mb071 <= 8
 mb131 <= 47
 mb841 <= 24
 mb831 <= 27
 mb051 <= 15
 mb041 <= 26
 mb2001 <= 27
 mb3001 <= 56
 mb4001 <= 93
 mbiog2 <= 700
 mvert2 <= 52
 mrecy2 <= 85
 mb30A2 <= 18
 mb30C2 <= 21
 mb482 <= 12
 mb072 <= 8
 mb132 <= 47
 mb842 <= 24
 mb832 <= 27
 mb052 <= 15
 mb042 <= 26
 mb2002 <= 27
 mb3002 <= 56
 mb4002 <= 93
 mbiog3 <= 700
 mvert3 <= 52
 mrecy3 <= 85
 mb30A3 <= 18
 mb30C3 <= 21
 mb483 <= 12
 mb073 <= 8
 mb133 <= 47
 mb843 <= 24
 mb833 <= 27
 mb053 <= 15
 mb043 <= 26
 mb2003 <= 27
 mb3003 <= 56
 mb4003 <= 93
 mbiog4 <= 700
 mvert4 <= 52
 mrecy4 <= 85
 mb30A4 <= 18
 mb30C4 <= 21
 mb484 <= 12
 mb074 <= 8
 mb134 <= 47
 mb844 <= 24
 mb834 <= 27
 mb054 <= 15
 mb044 <= 26
 mb2004 <= 27
 mb3004 <= 56
 mb4004 <= 93
 mbiog5 <= 700
 mvert5 <= 52
 mrecy5 <= 85
 mb30A5 <= 18
 mb30C5 <= 21
 mb485 <= 12
 mb075 <= 8
 mb135 <= 47
 mb845 <= 24
 mb835 <= 27
 mb055 <= 15
 mb045 <= 26
 mb2005 <= 27
 mb3005 <= 56
 mb4005 <= 93
 mbiog6 <= 700
 mvert6 <= 52
 mrecy6 <= 85
 mb30A6 <= 18
 mb30C6 <= 21
 mb486 <= 12
 mb076 <= 8
 mb136 <= 47
 mb846 <= 24
 mb836 <= 27
 mb056 <= 15
 mb046 <= 26
 mb2006 <= 27
 mb3006 <= 56
 mb4006 <= 93
 mbiog7 <= 700
 mvert7 <= 52
 mrecy7 <= 85
 mb30A7 <= 18
 mb30C7 <= 21
 mb487 <= 12
 mb077 <= 8
 mb137 <= 47
 mb847 <= 24
 mb837 <= 27
 mb057 <= 15
 mb047 <= 26
 mb2007 <= 27
 mb3007 <= 56
 mb4007 <= 93
 mbiog8 <= 700
 mvert8 <= 52
 mrecy8 <= 85
 mb30A8 <= 18
 mb30C8 <= 21
 mb488 <= 12
 mb078 <= 8
 mb138 <= 47
 mb848 <= 24
 mb838 <= 27
 mb058 <= 15
 mb048 <= 26
 mb2008 <= 27
 mb3008 <= 56
 mb4008 <= 93
 mbiog9 <= 700
 mvert9 <= 52
 mrecy9 <= 85
 mb30A9 <= 18
 mb30C9 <= 21
 mb489 <= 12
 mb079 <= 8
 mb139 <= 47
 mb849 <= 24
 mb839 <= 27
 mb059 <= 15
 mb049 <= 26
 mb2009 <= 27
 mb3009 <= 56
 mb4009 <= 93
 mbiog10 <= 700
 mvert10 <= 52
 mrecy10 <= 85
 mb30A10 <= 18
 mb30C10 <= 21
 mb4810 <= 12
 mb0710 <= 8
 mb1310 <= 47
 mb8410 <= 24
 mb8310 <= 27
 mb0510 <= 15
 mb0410 <= 26
 mb20010 <= 27
 mb30010 <= 56
 mb40010 <= 93
 mbiog11 <= 700
 mvert11 <= 52
 mrecy11 <= 85
 mb30A11 <= 21
 mb30C11 <= 43
 mb4811 <= 75
 mb0711 <= 56
 mb1311 <= 51
 mb8411 <= 28
 mb8311 <= 27
 mb0511 <= 21
 mb0411 <= 37
 mb20011 <= 27
 mb30011 <= 56
 mb40011 <= 93
 mbiog12 <= 700
 mvert12 <= 52
 mrecy12 <= 85
 mb30A12 <= 21
 mb30C12 <= 43
 mb4812 <= 75
 mb0712 <= 56
 mb1312 <= 51
 mb8412 <= 28
 mb8312 <= 27
 mb0512 <= 21
 mb0412 <= 37
 mb20012 <= 27
 mb30012 <= 56
 mb40012 <= 93
 mbiog13 <= 700
 mvert13 <= 52
 mrecy13 <= 85
 mb30A13 <= 21
 mb30C13 <= 43
 mb4813 <= 75
 mb0713 <= 56
 mb1313 <= 51
 mb8413 <= 28
 mb8313 <= 27
 mb0513 <= 21
 mb0413 <= 37
 mb20013 <= 27
 mb30013 <= 56
 mb40013 <= 93
 mbiog14 <= 700
 mvert14 <= 52
 mrecy14 <= 85
 mb30A14 <= 21
 mb30C14 <= 43
 mb4814 <= 75
 mb0714 <= 56
 mb1314 <= 51
 mb8414 <= 28
 mb8314 <= 27
 mb0514 <= 21
 mb0414 <= 37
 mb20014 <= 27
 mb30014 <= 56
 mb40014 <= 93
 mbiog15 <= 700
 mvert15 <= 52
 mrecy15 <= 85
 mb30A15 <= 21
 mb30C15 <= 43
 mb4815 <= 75
 mb0715 <= 56
 mb1315 <= 51
 mb8415 <= 28
 mb8315 <= 27
 mb0515 <= 21
 mb0415 <= 37
 mb20015 <= 27
 mb30015 <= 56
 mb40015 <= 93
 mbiog16 <= 700
 mvert16 <= 52
 mrecy16 <= 85
 mb30A16 <= 21
 mb30C16 <= 43
 mb4816 <= 75
 mb0716 <= 56
 mb1316 <= 51
 mb8416 <= 28
 mb8316 <= 27
 mb0516 <= 21
 mb0416 <= 37
 mb20016 <= 27
 mb30016 <= 56
 mb40016 <= 93
 mbiog17 <= 700
 mvert17 <= 52
 mrecy17 <= 85
 mb30A17 <= 21
 mb30C17 <= 43
 mb4817 <= 75
 mb0717 <= 56
 mb1317 <= 51
 mb8417 <= 28
 mb8317 <= 27
 mb0517 <= 21
 mb0417 <= 37
 mb20017 <= 27
 mb30017 <= 56
 mb40017 <= 93
 mbiog18 <= 700
 mvert18 <= 52
 mrecy18 <= 85
 mb30A18 <= 21
 mb30C18 <= 43
 mb4818 <= 75
 mb0718 <= 56
 mb1318 <= 51
 mb8418 <= 28
 mb8318 <= 27
 mb0518 <= 21
 mb0418 <= 37
 mb20018 <= 27
 mb30018 <= 56
 mb40018 <= 93
 mbiog19 <= 700
 mvert19 <= 52
 mrecy19 <= 85
 mb30A19 <= 21
 mb30C19 <= 43
 mb4819 <= 75
 mb0719 <= 56
 mb1319 <= 51
 mb8419 <= 28
 mb8319 <= 27
 mb0519 <= 21
 mb0419 <= 37
 mb20019 <= 27
 mb30019 <= 56
 mb40019 <= 93
 Constant = 1
Binaries
 incorp_biomasse0 incorp_biomasse1 incorp_biomasse2 incorp_biomasse3
 incorp_biomasse4 incorp_biomasse5 incorp_biomasse6 incorp_biomasse7
 incorp_biomasse8 incorp_biomasse9 incorp_biomasse10 incorp_biomasse11
 incorp_biomasse12 incorp_biomasse13 incorp_biomasse14 incorp_biomasse15
 incorp_biomasse16 incorp_biomasse17 incorp_biomasse18 incorp_biomasse19
End
